NAME : portcgen-20-30
COMMENT : portcgen N=20, seed=30
TYPE : TSP
DIMENSION : 20
EDGE_WEIGHT_TYPE : EUC_2D
NODE_COORD_SECTION
1 59 56
2 85 83
3 86 76
4 96 57
5 77 90
6 89 64
7 91 82
8 87 65
9 83 104
10 58 103
11 79 92
12 81 79
13 85 71
14 63 75
15 82 78
16 86 96
17 78 98
18 80 57
19 56 73
20 77 71
